min: c;

c = 4.40301031164825 * u3_t10_h0 + 3.78142643465457 * u3_t10_h1 + 3.01583178362241 * u3_t4_h2 + 3.01583178362241 * u3_t10_h2 + 3.03868145449551 * u3_t4_h3 + 3.03868145449551 * u3_t10_h3 + 2.83388659415194 * u3_t4_h4 + 2.83388659415194 * u3_t10_h4 + 3.78669502342799 * u3_t4_h5 + 3.78669502342799 * u3_t10_h5 + 4.10825762654695 * u3_t4_h6 + 4.10825762654695 * u3_t10_h6 + 4.02906412699088 * u3_t4_h7 + 4.02906412699088 * u3_t9_h7 + 4.02906412699088 * u3_t10_h7 + 5.77380552009481 * u3_t4_h8 + 5.77380552009481 * u3_t9_h8 + 4.77899552064733 * u3_t4_h9 + 4.77899552064733 * u3_t9_h9 + 5.35831108741521 * u3_t4_h10 + 5.35831108741521 * u3_t6_h10 + 5.35831108741521 * u3_t9_h10 + 4.04064348070935 * u3_t3_h11 + 4.04064348070935 * u3_t4_h11 + 4.04064348070935 * u3_t6_h11 + 4.04064348070935 * u3_t9_h11 + 6.40107569855414 * u3_t3_h12 + 6.40107569855414 * u3_t4_h12 + 6.40107569855414 * u3_t6_h12 + 6.40107569855414 * u3_t9_h12 + 4.05515428870401 * u3_t3_h13 + 4.05515428870401 * u3_t4_h13 + 4.05515428870401 * u3_t5_h13 + 4.05515428870401 * u3_t6_h13 + 4.05515428870401 * u3_t9_h13 + 5.42523174130584 * u3_t3_h14 + 5.42523174130584 * u3_t4_h14 + 5.42523174130584 * u3_t5_h14 + 5.42523174130584 * u3_t6_h14 + 5.42523174130584 * u3_t9_h14 + 5.88957136110413 * u3_t2_h15 + 5.88957136110413 * u3_t3_h15 + 5.88957136110413 * u3_t4_h15 + 5.88957136110413 * u3_t5_h15 + 5.88957136110413 * u3_t6_h15 + 5.88957136110413 * u3_t9_h15 + 5.89286631222572 * u3_t2_h16 + 5.89286631222572 * u3_t4_h16 + 5.89286631222572 * u3_t5_h16 + 5.89286631222572 * u3_t6_h16 + 5.89286631222572 * u3_t9_h16 + 5.90087723282768 * u3_t2_h17 + 5.90087723282768 * u3_t4_h17 + 5.90087723282768 * u3_t6_h17 + 5.90087723282768 * u3_t9_h17 + 6.58618015741137 * u3_t2_h18 + 6.58618015741137 * u3_t6_h18 + 6.58618015741137 * u3_t9_h18 + 5.82673916352951 * u3_t2_h19 + 5.82673916352951 * u3_t9_h19 + 5.42485489027962 * u3_t1_h20 + 5.42485489027962 * u3_t2_h20 + 5.42485489027962 * u3_t8_h20 + 5.42485489027962 * u3_t9_h20 + 5.75288594312889 * u3_t1_h21 + 5.75288594312889 * u3_t2_h21 + 5.75288594312889 * u3_t7_h21 + 5.75288594312889 * u3_t8_h21 + 5.75288594312889 * u3_t9_h21 + 5.35163581119166 * u3_t1_h22 + 5.35163581119166 * u3_t7_h22 + 5.35163581119166 * u3_t8_h22 + 5.93089443298634 * u3_t1_h23 + 5.93089443298634 * u3_t7_h23 + 5.93089443298634 * u3_t8_h23;
0 <= u3_t1_h20 <= 1;
0 <= u3_t1_h21 <= 1;
0 <= u3_t1_h22 <= 1;
0 <= u3_t1_h23 <= 1;
u3_t1_h20 + u3_t1_h21 + u3_t1_h22 + u3_t1_h23 = 2;
0 <= u3_t2_h15 <= 1;
0 <= u3_t2_h16 <= 1;
0 <= u3_t2_h17 <= 1;
0 <= u3_t2_h18 <= 1;
0 <= u3_t2_h19 <= 1;
0 <= u3_t2_h20 <= 1;
0 <= u3_t2_h21 <= 1;
u3_t2_h15 + u3_t2_h16 + u3_t2_h17 + u3_t2_h18 + u3_t2_h19 + u3_t2_h20 + u3_t2_h21 = 3;
0 <= u3_t3_h11 <= 1;
0 <= u3_t3_h12 <= 1;
0 <= u3_t3_h13 <= 1;
0 <= u3_t3_h14 <= 1;
0 <= u3_t3_h15 <= 1;
u3_t3_h11 + u3_t3_h12 + u3_t3_h13 + u3_t3_h14 + u3_t3_h15 = 2;
0 <= u3_t4_h2 <= 1;
0 <= u3_t4_h3 <= 1;
0 <= u3_t4_h4 <= 1;
0 <= u3_t4_h5 <= 1;
0 <= u3_t4_h6 <= 1;
0 <= u3_t4_h7 <= 1;
0 <= u3_t4_h8 <= 1;
0 <= u3_t4_h9 <= 1;
0 <= u3_t4_h10 <= 1;
0 <= u3_t4_h11 <= 1;
0 <= u3_t4_h12 <= 1;
0 <= u3_t4_h13 <= 1;
0 <= u3_t4_h14 <= 1;
0 <= u3_t4_h15 <= 1;
0 <= u3_t4_h16 <= 1;
0 <= u3_t4_h17 <= 1;
u3_t4_h2 + u3_t4_h3 + u3_t4_h4 + u3_t4_h5 + u3_t4_h6 + u3_t4_h7 + u3_t4_h8 + u3_t4_h9 + u3_t4_h10 + u3_t4_h11 + u3_t4_h12 + u3_t4_h13 + u3_t4_h14 + u3_t4_h15 + u3_t4_h16 + u3_t4_h17 = 3;
0 <= u3_t5_h13 <= 1;
0 <= u3_t5_h14 <= 1;
0 <= u3_t5_h15 <= 1;
0 <= u3_t5_h16 <= 1;
u3_t5_h13 + u3_t5_h14 + u3_t5_h15 + u3_t5_h16 = 2;
0 <= u3_t6_h10 <= 1;
0 <= u3_t6_h11 <= 1;
0 <= u3_t6_h12 <= 1;
0 <= u3_t6_h13 <= 1;
0 <= u3_t6_h14 <= 1;
0 <= u3_t6_h15 <= 1;
0 <= u3_t6_h16 <= 1;
0 <= u3_t6_h17 <= 1;
0 <= u3_t6_h18 <= 1;
u3_t6_h10 + u3_t6_h11 + u3_t6_h12 + u3_t6_h13 + u3_t6_h14 + u3_t6_h15 + u3_t6_h16 + u3_t6_h17 + u3_t6_h18 = 2;
0 <= u3_t7_h21 <= 1;
0 <= u3_t7_h22 <= 1;
0 <= u3_t7_h23 <= 1;
u3_t7_h21 + u3_t7_h22 + u3_t7_h23 = 2;
0 <= u3_t8_h20 <= 1;
0 <= u3_t8_h21 <= 1;
0 <= u3_t8_h22 <= 1;
0 <= u3_t8_h23 <= 1;
u3_t8_h20 + u3_t8_h21 + u3_t8_h22 + u3_t8_h23 = 1;
0 <= u3_t9_h7 <= 1;
0 <= u3_t9_h8 <= 1;
0 <= u3_t9_h9 <= 1;
0 <= u3_t9_h10 <= 1;
0 <= u3_t9_h11 <= 1;
0 <= u3_t9_h12 <= 1;
0 <= u3_t9_h13 <= 1;
0 <= u3_t9_h14 <= 1;
0 <= u3_t9_h15 <= 1;
0 <= u3_t9_h16 <= 1;
0 <= u3_t9_h17 <= 1;
0 <= u3_t9_h18 <= 1;
0 <= u3_t9_h19 <= 1;
0 <= u3_t9_h20 <= 1;
0 <= u3_t9_h21 <= 1;
u3_t9_h7 + u3_t9_h8 + u3_t9_h9 + u3_t9_h10 + u3_t9_h11 + u3_t9_h12 + u3_t9_h13 + u3_t9_h14 + u3_t9_h15 + u3_t9_h16 + u3_t9_h17 + u3_t9_h18 + u3_t9_h19 + u3_t9_h20 + u3_t9_h21 = 2;
0 <= u3_t10_h0 <= 1;
0 <= u3_t10_h1 <= 1;
0 <= u3_t10_h2 <= 1;
0 <= u3_t10_h3 <= 1;
0 <= u3_t10_h4 <= 1;
0 <= u3_t10_h5 <= 1;
0 <= u3_t10_h6 <= 1;
0 <= u3_t10_h7 <= 1;
u3_t10_h0 + u3_t10_h1 + u3_t10_h2 + u3_t10_h3 + u3_t10_h4 + u3_t10_h5 + u3_t10_h6 + u3_t10_h7 = 3;
